125
[12,13,14,15,16,17,18,19,20,21,22,23,24,25,26,27,28,29,30,31,32,33,34,35,36,37,38,39,40,41,42,43,44,45,46,47,48,49,50,51,52,53,54,55,56,57,58,59,60,61,62,63,64,65,66,67,68,69,70,71,72,73,74,75,76,77,78,79,80,81,82,83,84,85,86,87,88,89,90,91,92,93,94,95,96,97,98,99,100]
[13,15,11,14,9,12,15,10,11,9,12,11,4,13,13,5,9,8,17,12,19,12,12,16,17,12,10,17,12,14,9,7,8,10,15,13,17,11,14,11,12,12,12,11,11,15,11,13,10,10,2,11,11,8,11,10,5,13,14,9,10,11,5,11,11,15,12,12,12,9,9,8,9,11,10,16,11,8,12,9,18,14,9,9,5,9,14,9,12]
